p cnf 13 20
-13 12 6 0
-13 12 -4 0
13 12 2 0
13 -10 6 0
13 9 8 0
-12 8 7 0
12 6 5 0
-12 -6 3 0
-11 8 1 0
11 7 5 0
-11 -4 2 0
-10 9 7 0
-9 -7 -4 0
9 5 4 0
-9 5 -2 0
8 -6 1 0
8 -3 -1 0
8 -2 -1 0
7 -4 -3 0
-4 3 -1 0
